	Costo	Nv	Tiempo
1	1382,74	5	5,827
2	2081,32	10	12,187
3	3003,08	8	23,624
4	4115,49	12	50,546
5	5362,87	16	91,436
6	1357,11	10	6,077
7	2185,45	19	12,671
8	2798,81	17	22,92
9	4217,08	30	51,062
10	5476,34	39	95,017
11	4384,1	7	33,095
12	3205,34	10	21,625
13	4989,09	16	33,016
14	3588,97	13	22,531
